WARNING: for repeatability, setting FPU to use double precision
============================[ Problem Statistics ]=============================
|                                                                             |
|  Number of variables:            70                                         |
|  Number of clauses:             325                                         |
|  Parse time:                   0.00 s                                       |
|                                                                             |
============================[ Search Statistics ]==============================
| Conflicts |          ORIGINAL         |          LEARNT          | Progress |
|           |    Vars  Clauses Literals |    Limit  Clauses Lit/Cl |          |
===============================================================================
|       100 |      70      325      700 |      119      100     17 |  0.021 % |
|       250 |      70      325      700 |      131      111     16 |  0.021 % |
|       475 |      70      325      700 |      144      167     17 |  0.021 % |
|       812 |      70      325      700 |      158       84     14 |  0.021 % |
|      1318 |      70      325      700 |      174      119     15 |  0.023 % |
|      2077 |      70      325      700 |      191      168     14 |  0.023 % |
|      3216 |      70      325      700 |      211      113     12 |  0.023 % |
|      4924 |      70      325      700 |      232      145     13 |  0.021 % |
|      7486 |      69      316      682 |      255      213     15 |  1.470 % |
===============================================================================
restarts              : 41
conflicts             : 9462           (137918 /sec)
decisions             : 11551          (0.00 % random) (168367 /sec)
propagations          : 162512         (2368772 /sec)
conflict literals     : 156128         (10.01 % deleted)
Memory used           : 11.00 MB
CPU time              : 0.068606 s

UNSATISFIABLE
